p tw 20 114
0 1
0 2
0 3
0 7
0 19
0 9
0 16
0 5
0 13
0 14
1 2
1 3
1 11
1 15
1 17
1 9
1 12
1 10
2 5
2 10
2 12
2 13
2 14
2 15
2 17
2 11
2 19
2 8
2 9
2 3
3 11
3 7
3 13
3 17
3 4
3 6
3 9
3 18
3 5
3 10
4 5
4 6
4 9
4 16
4 17
4 19
4 15
4 13
5 6
5 10
5 7
5 15
5 19
5 18
5 13
5 8
5 12
5 9
6 8
6 12
6 14
6 16
6 15
6 9
6 7
6 17
6 11
6 10
7 8
7 9
7 13
7 10
7 12
7 15
7 14
7 19
7 17
7 16
7 18
8 9
8 12
8 15
8 14
9 12
9 13
9 16
9 19
9 17
9 11
10 12
10 11
10 18
10 14
10 19
10 15
11 16
11 18
12 13
12 14
12 17
12 18
13 14
13 19
13 18
14 15
14 16
14 19
14 18
15 17
15 16
15 18
16 18
17 19
18 19
